<?xml version = "1.0" standalone="yes"?>
<!-- This file has been generated by DOcplex version 2.23.222  -->
<CPLEXSolution version="1.0">
 <header
   problemName="CVRP"
   objectiveValue="8494.32"
  />
 <variables>
  <variable name="x_0_1" index="0" value="1.00000"/>
  <variable name="x_0_3" index="2" value="1.00000"/>
  <variable name="x_0_5" index="4" value="1.00000"/>
  <variable name="x_0_6" index="5" value="1.00000"/>
  <variable name="x_0_8" index="7" value="1.00000"/>
  <variable name="x_0_10" index="9" value="1.00000"/>
  <variable name="x_0_11" index="10" value="1.00000"/>
  <variable name="x_0_14" index="13" value="1.00000"/>
  <variable name="x_0_16" index="15" value="1.00000"/>
  <variable name="x_0_18" index="17" value="1.00000"/>
  <variable name="x_1_9" index="27" value="1.00000"/>
  <variable name="x_2_0" index="38" value="1.00000"/>
  <variable name="x_3_12" index="68" value="1.00000"/>
  <variable name="x_4_2" index="78" value="1.00000"/>
  <variable name="x_5_0" index="95" value="1.00000"/>
  <variable name="x_6_15" index="128" value="1.00000"/>
  <variable name="x_7_0" index="133" value="1.00000"/>
  <variable name="x_8_13" index="164" value="1.00000"/>
  <variable name="x_9_17" index="187" value="1.00000"/>
  <variable name="x_10_0" index="190" value="1.00000"/>
  <variable name="x_11_19" index="227" value="1.00000"/>
  <variable name="x_12_7" index="235" value="1.00000"/>
  <variable name="x_13_4" index="251" value="1.00000"/>
  <variable name="x_14_0" index="266" value="1.00000"/>
  <variable name="x_15_0" index="285" value="1.00000"/>
  <variable name="x_16_0" index="304" value="1.00000"/>
  <variable name="x_17_0" index="323" value="1.00000"/>
  <variable name="x_18_0" index="342" value="1.00000"/>
  <variable name="x_19_0" index="361" value="1.00000"/>
  <variable name="u_1" index="380" value="2.00000"/>
  <variable name="u_2" index="381" value="61.00000"/>
  <variable name="u_3" index="382" value="4.00000"/>
  <variable name="u_4" index="383" value="25.00000"/>
  <variable name="u_5" index="384" value="61.00000"/>
  <variable name="u_6" index="385" value="52.00000"/>
  <variable name="u_7" index="386" value="60.00000"/>
  <variable name="u_8" index="387" value="6.00000"/>
  <variable name="u_9" index="388" value="41.00000"/>
  <variable name="u_10" index="389" value="59.00000"/>
  <variable name="u_11" index="390" value="40.00000"/>
  <variable name="u_12" index="391" value="18.00000"/>
  <variable name="u_13" index="392" value="11.00000"/>
  <variable name="u_14" index="393" value="61.00000"/>
  <variable name="u_15" index="394" value="61.00000"/>
  <variable name="u_16" index="395" value="61.00000"/>
  <variable name="u_17" index="396" value="61.00000"/>
  <variable name="u_18" index="397" value="47.00000"/>
  <variable name="u_19" index="398" value="43.00000"/>
 </variables>
</CPLEXSolution>
